p cnf 306 2281
57 113 149 181 199 246 0
146 248 250 255 258 0
97 125 129 302 0
101 111 206 0
114 161 0
45 107 134 136 0
103 143 150 0
42 132 164 166 0
167 189 192 268 0
171 175 271 273 275 0
119 137 141 277 0
110 185 188 191 196 0
40 144 0
170 201 204 210 0
162 177 212 286 0
86 89 304 0
82 83 99 0
72 74 76 77 79 0
68 69 71 102 168 0
63 64 66 172 173 0
60 62 117 138 0
58 59 109 147 182 0
53 54 56 148 157 0
51 52 145 154 0
48 50 95 123 128 0
47 112 198 0
46 105 115 0
43 44 80 98 0
41 90 130 133 0
116 120 0
39 153 0
38 49 91 121 163 0
127 202 215 216 217 218 0
178 205 211 219 221 222 0
223 226 227 228 230 0
84 232 233 234 0
78 235 236 0
73 75 237 238 0
70 239 240 0
67 169 241 242 0
61 65 118 243 0
55 183 194 244 0
124 152 155 156 245 0
200 247 0
158 208 0
249 251 256 259 0
108 260 261 0
81 253 262 263 0
264 266 267 0
126 131 165 0
186 190 193 269 270 0
174 272 274 276 0
122 140 278 280 0
203 220 0
180 214 282 284 0
88 92 225 0
100 176 287 0
-146 -288 0
-125 -288 0
-288 -289 0
-161 -288 0
-136 -288 0
-125 -146 0
-146 -289 0
-146 -161 0
-136 -146 0
-125 -289 0
-125 -161 0
-125 -136 0
-161 -289 0
-136 -289 0
-136 -161 0
-42 -167 0
-42 -171 0
-42 -110 0
-42 -144 0
-42 -290 0
-167 -171 0
-110 -167 0
-144 -167 0
-167 -290 0
-110 -171 0
-144 -171 0
-171 -290 0
-110 -144 0
-110 -290 0
-144 -290 0
-89 -286 0
-286 -291 0
-79 -286 0
-286 -293 0
-71 -286 0
-89 -291 0
-79 -89 0
-89 -293 0
-71 -89 0
-79 -291 0
-291 -293 0
-71 -291 0
-79 -293 0
-71 -79 0
-71 -293 0
-59 -148 0
-59 -294 0
-59 -252 0
-148 -294 0
-148 -252 0
-252 -294 0
-127 -205 0
-127 -235 0
-75 -127 0
-205 -235 0
-75 -205 0
-75 -235 0
-244 -245 0
-42 -288 0
-286 -288 0
-59 -288 0
-127 -288 0
-42 -286 0
-42 -59 0
-42 -127 0
-59 -286 0
-127 -286 0
-59 -127 0
-146 -167 0
-89 -146 0
-146 -148 0
-146 -205 0
-89 -167 0
-148 -167 0
-167 -205 0
-89 -148 0
-89 -205 0
-148 -205 0
-125 -171 0
-125 -291 0
-125 -244 0
-171 -291 0
-171 -244 0
-244 -291 0
-110 -289 0
-79 -289 0
-245 -289 0
-79 -110 0
-110 -245 0
-79 -245 0
-144 -161 0
-161 -293 0
-161 -294 0
-161 -235 0
-144 -293 0
-144 -294 0
-144 -235 0
-293 -294 0
-235 -293 0
-235 -294 0
-136 -290 0
-71 -136 0
-136 -252 0
-75 -136 0
-71 -290 0
-252 -290 0
-75 -290 0
-71 -252 0
-71 -75 0
-75 -252 0
-113 -295 0
-113 -296 0
-295 -296 0
-162 -170 0
-77 -170 0
-77 -162 0
-62 -109 0
-62 -209 0
-62 -257 0
-109 -209 0
-109 -257 0
-209 -257 0
-163 -215 0
-163 -236 0
-163 -237 0
-215 -236 0
-215 -237 0
-236 -237 0
-287 -292 0
-113 -170 0
-62 -113 0
-113 -163 0
-62 -170 0
-163 -170 0
-62 -163 0
-162 -295 0
-109 -295 0
-215 -295 0
-109 -162 0
-162 -215 0
-109 -215 0
-77 -296 0
-209 -236 0
-209 -292 0
-236 -292 0
-237 -257 0
-257 -287 0
-237 -287 0
-159 -181 0
-181 -248 0
-181 -302 0
-111 -181 0
-134 -181 0
-103 -181 0
-159 -248 0
-159 -302 0
-111 -159 0
-134 -159 0
-103 -159 0
-248 -302 0
-111 -248 0
-134 -248 0
-103 -248 0
-111 -302 0
-134 -302 0
-103 -302 0
-111 -134 0
-103 -111 0
-103 -134 0
-132 -265 0
-265 -268 0
-265 -271 0
-119 -265 0
-179 -265 0
-93 -265 0
-132 -268 0
-132 -271 0
-119 -132 0
-132 -179 0
-93 -132 0
-268 -271 0
-119 -268 0
-179 -268 0
-93 -268 0
-119 -271 0
-179 -271 0
-93 -271 0
-119 -179 0
-93 -119 0
-93 -179 0
-177 -201 0
-201 -304 0
-201 -229 0
-83 -201 0
-69 -201 0
-66 -201 0
-177 -304 0
-177 -229 0
-83 -177 0
-69 -177 0
-66 -177 0
-229 -304 0
-83 -304 0
-69 -304 0
-66 -304 0
-83 -229 0
-69 -229 0
-66 -229 0
-69 -83 0
-66 -83 0
-66 -69 0
-58 -60 0
-56 -60 0
-60 -145 0
-60 -123 0
-60 -297 0
-60 -115 0
-56 -58 0
-58 -145 0
-58 -123 0
-58 -297 0
-58 -115 0
-56 -145 0
-56 -123 0
-56 -297 0
-56 -115 0
-123 -145 0
-145 -297 0
-115 -145 0
-123 -297 0
-115 -123 0
-115 -297 0
-44 -151 0
-44 -90 0
-44 -298 0
-44 -299 0
-44 -197 0
-39 -44 0
-90 -151 0
-151 -298 0
-151 -299 0
-151 -197 0
-39 -151 0
-90 -298 0
-90 -299 0
-90 -197 0
-39 -90 0
-298 -299 0
-197 -298 0
-39 -298 0
-197 -299 0
-39 -299 0
-39 -197 0
-38 -216 0
-38 -211 0
-38 -283 0
-38 -223 0
-38 -73 0
-38 -239 0
-211 -216 0
-216 -283 0
-216 -223 0
-73 -216 0
-216 -239 0
-211 -283 0
-211 -223 0
-73 -211 0
-211 -239 0
-223 -283 0
-73 -283 0
-239 -283 0
-73 -223 0
-223 -239 0
-73 -239 0
-65 -169 0
-169 -300 0
-65 -300 0
-181 -265 0
-181 -201 0
-60 -181 0
-44 -181 0
-38 -181 0
-169 -181 0
-201 -265 0
-60 -265 0
-44 -265 0
-38 -265 0
-169 -265 0
-60 -201 0
-44 -201 0
-38 -201 0
-169 -201 0
-44 -60 0
-38 -60 0
-60 -169 0
-38 -44 0
-44 -169 0
-38 -169 0
-132 -159 0
-159 -177 0
-58 -159 0
-151 -159 0
-159 -216 0
-65 -159 0
-132 -177 0
-58 -132 0
-132 -151 0
-132 -216 0
-65 -132 0
-58 -177 0
-151 -177 0
-177 -216 0
-65 -177 0
-58 -151 0
-58 -216 0
-58 -65 0
-151 -216 0
-65 -151 0
-65 -216 0
-248 -268 0
-248 -304 0
-56 -248 0
-90 -248 0
-211 -248 0
-248 -300 0
-268 -304 0
-56 -268 0
-90 -268 0
-211 -268 0
-268 -300 0
-56 -304 0
-90 -304 0
-211 -304 0
-300 -304 0
-56 -90 0
-56 -211 0
-56 -300 0
-90 -211 0
-90 -300 0
-211 -300 0
-271 -302 0
-229 -302 0
-145 -302 0
-298 -302 0
-283 -302 0
-229 -271 0
-145 -271 0
-271 -298 0
-271 -283 0
-145 -229 0
-229 -298 0
-229 -283 0
-145 -298 0
-145 -283 0
-283 -298 0
-111 -119 0
-83 -111 0
-111 -123 0
-111 -299 0
-111 -223 0
-83 -119 0
-119 -123 0
-119 -299 0
-119 -223 0
-83 -123 0
-83 -299 0
-83 -223 0
-123 -299 0
-123 -223 0
-223 -299 0
-134 -179 0
-69 -134 0
-134 -297 0
-134 -197 0
-73 -134 0
-69 -179 0
-179 -297 0
-179 -197 0
-73 -179 0
-69 -297 0
-69 -197 0
-69 -73 0
-197 -297 0
-73 -297 0
-73 -197 0
-93 -103 0
-66 -103 0
-103 -115 0
-39 -103 0
-103 -239 0
-66 -93 0
-93 -115 0
-39 -93 0
-93 -239 0
-66 -115 0
-39 -66 0
-66 -239 0
-39 -115 0
-115 -239 0
-39 -239 0
-273 -277 0
-185 -273 0
-273 -279 0
-273 -301 0
-185 -277 0
-277 -279 0
-277 -301 0
-185 -279 0
-185 -301 0
-279 -301 0
-99 -231 0
-76 -231 0
-102 -231 0
-172 -231 0
-76 -99 0
-99 -102 0
-99 -172 0
-76 -102 0
-76 -172 0
-102 -172 0
-54 -117 0
-52 -117 0
-50 -117 0
-117 -198 0
-52 -54 0
-50 -54 0
-54 -198 0
-50 -52 0
-52 -198 0
-50 -198 0
-121 -219 0
-121 -285 0
-121 -226 0
-121 -232 0
-219 -285 0
-219 -226 0
-219 -232 0
-226 -285 0
-232 -285 0
-226 -232 0
-139 -241 0
-183 -241 0
-160 -241 0
-152 -241 0
-158 -241 0
-241 -249 0
-139 -183 0
-139 -160 0
-139 -152 0
-139 -158 0
-139 -249 0
-160 -183 0
-152 -183 0
-158 -183 0
-183 -249 0
-152 -160 0
-158 -160 0
-160 -249 0
-152 -158 0
-152 -249 0
-158 -249 0
-81 -303 0
-264 -303 0
-135 -303 0
-104 -303 0
-131 -303 0
-269 -303 0
-81 -264 0
-81 -135 0
-81 -104 0
-81 -131 0
-81 -269 0
-135 -264 0
-104 -264 0
-131 -264 0
-264 -269 0
-104 -135 0
-131 -135 0
-135 -269 0
-104 -131 0
-104 -269 0
-131 -269 0
-94 -272 0
-203 -272 0
-180 -272 0
-92 -272 0
-176 -272 0
-272 -305 0
-94 -203 0
-94 -180 0
-92 -94 0
-94 -176 0
-94 -305 0
-180 -203 0
-92 -203 0
-176 -203 0
-203 -305 0
-92 -180 0
-176 -180 0
-180 -305 0
-92 -176 0
-92 -305 0
-176 -305 0
-117 -121 0
-117 -241 0
-117 -303 0
-117 -272 0
-121 -241 0
-121 -303 0
-121 -272 0
-241 -303 0
-241 -272 0
-272 -303 0
-54 -219 0
-54 -139 0
-54 -81 0
-54 -94 0
-139 -219 0
-81 -219 0
-94 -219 0
-81 -139 0
-94 -139 0
-81 -94 0
-231 -273 0
-52 -273 0
-273 -285 0
-183 -273 0
-264 -273 0
-203 -273 0
-52 -231 0
-231 -285 0
-183 -231 0
-231 -264 0
-203 -231 0
-52 -285 0
-52 -183 0
-52 -264 0
-52 -203 0
-183 -285 0
-264 -285 0
-203 -285 0
-183 -264 0
-183 -203 0
-203 -264 0
-99 -277 0
-50 -277 0
-226 -277 0
-160 -277 0
-135 -277 0
-180 -277 0
-50 -99 0
-99 -226 0
-99 -160 0
-99 -135 0
-99 -180 0
-50 -226 0
-50 -160 0
-50 -135 0
-50 -180 0
-160 -226 0
-135 -226 0
-180 -226 0
-135 -160 0
-160 -180 0
-135 -180 0
-76 -185 0
-185 -198 0
-185 -232 0
-152 -185 0
-104 -185 0
-92 -185 0
-76 -198 0
-76 -232 0
-76 -152 0
-76 -104 0
-76 -92 0
-198 -232 0
-152 -198 0
-104 -198 0
-92 -198 0
-152 -232 0
-104 -232 0
-92 -232 0
-104 -152 0
-92 -152 0
-92 -104 0
-102 -279 0
-158 -279 0
-131 -279 0
-176 -279 0
-102 -158 0
-102 -131 0
-102 -176 0
-131 -158 0
-158 -176 0
-131 -176 0
-172 -301 0
-249 -301 0
-269 -301 0
-301 -305 0
-172 -249 0
-172 -269 0
-172 -305 0
-249 -269 0
-249 -305 0
-269 -305 0
-149 -306 0
-149 -250 0
-97 -149 0
-149 -254 0
-107 -149 0
-143 -149 0
-250 -306 0
-97 -306 0
-254 -306 0
-107 -306 0
-143 -306 0
-97 -250 0
-250 -254 0
-107 -250 0
-143 -250 0
-97 -254 0
-97 -107 0
-97 -143 0
-107 -254 0
-143 -254 0
-107 -143 0
-37 -164 0
-37 -189 0
-37 -275 0
-37 -188 0
-37 -213 0
-37 -87 0
-164 -189 0
-164 -275 0
-164 -188 0
-164 -213 0
-87 -164 0
-189 -275 0
-188 -189 0
-189 -213 0
-87 -189 0
-188 -275 0
-213 -275 0
-87 -275 0
-188 -213 0
-87 -188 0
-87 -213 0
-204 -212 0
-86 -204 0
-36 -204 0
-74 -204 0
-68 -204 0
-173 -204 0
-86 -212 0
-36 -212 0
-74 -212 0
-68 -212 0
-173 -212 0
-36 -86 0
-74 -86 0
-68 -86 0
-86 -173 0
-36 -74 0
-36 -68 0
-36 -173 0
-68 -74 0
-74 -173 0
-68 -173 0
-35 -98 0
-98 -130 0
-34 -98 0
-98 -116 0
-35 -130 0
-34 -35 0
-35 -116 0
-34 -130 0
-116 -130 0
-34 -116 0
-49 -217 0
-49 -221 0
-33 -49 0
-49 -233 0
-217 -221 0
-33 -217 0
-217 -233 0
-33 -221 0
-221 -233 0
-33 -233 0
-32 -260 0
-32 -262 0
-32 -126 0
-32 -186 0
-260 -262 0
-126 -260 0
-186 -260 0
-126 -262 0
-186 -262 0
-126 -186 0
-274 -278 0
-184 -274 0
-100 -274 0
-31 -274 0
-184 -278 0
-100 -278 0
-31 -278 0
-100 -184 0
-31 -184 0
-31 -100 0
-37 -149 0
-149 -204 0
-98 -149 0
-49 -149 0
-32 -149 0
-149 -274 0
-37 -204 0
-37 -98 0
-37 -49 0
-32 -37 0
-37 -274 0
-98 -204 0
-49 -204 0
-32 -204 0
-204 -274 0
-49 -98 0
-32 -98 0
-98 -274 0
-32 -49 0
-49 -274 0
-32 -274 0
-164 -306 0
-212 -306 0
-35 -306 0
-217 -306 0
-260 -306 0
-278 -306 0
-164 -212 0
-35 -164 0
-164 -217 0
-164 -260 0
-164 -278 0
-35 -212 0
-212 -217 0
-212 -260 0
-212 -278 0
-35 -217 0
-35 -260 0
-35 -278 0
-217 -260 0
-217 -278 0
-260 -278 0
-189 -250 0
-86 -250 0
-130 -250 0
-221 -250 0
-250 -262 0
-184 -250 0
-86 -189 0
-130 -189 0
-189 -221 0
-189 -262 0
-184 -189 0
-86 -130 0
-86 -221 0
-86 -262 0
-86 -184 0
-130 -221 0
-130 -262 0
-130 -184 0
-221 -262 0
-184 -221 0
-184 -262 0
-97 -275 0
-36 -97 0
-34 -97 0
-33 -97 0
-36 -275 0
-34 -275 0
-33 -275 0
-34 -36 0
-33 -36 0
-33 -34 0
-188 -254 0
-74 -254 0
-116 -254 0
-233 -254 0
-74 -188 0
-116 -188 0
-188 -233 0
-74 -116 0
-74 -233 0
-116 -233 0
-107 -213 0
-68 -107 0
-107 -126 0
-100 -107 0
-68 -213 0
-126 -213 0
-100 -213 0
-68 -126 0
-68 -100 0
-100 -126 0
-87 -143 0
-143 -173 0
-143 -186 0
-31 -143 0
-87 -173 0
-87 -186 0
-31 -87 0
-173 -186 0
-31 -173 0
-31 -186 0
-207 -246 0
-246 -255 0
-206 -246 0
-30 -246 0
-207 -255 0
-206 -207 0
-30 -207 0
-206 -255 0
-30 -255 0
-30 -206 0
-29 -166 0
-29 -192 0
-29 -137 0
-29 -191 0
-166 -192 0
-137 -166 0
-166 -191 0
-137 -192 0
-191 -192 0
-137 -191 0
-27 -43 0
-41 -43 0
-27 -41 0
-242 -243 0
-26 -242 0
-25 -242 0
-155 -242 0
-242 -251 0
-26 -243 0
-25 -243 0
-155 -243 0
-243 -251 0
-25 -26 0
-26 -155 0
-26 -251 0
-25 -155 0
-25 -251 0
-155 -251 0
-96 -108 0
-96 -253 0
-96 -106 0
-96 -142 0
-96 -190 0
-108 -253 0
-106 -108 0
-108 -142 0
-108 -190 0
-106 -253 0
-142 -253 0
-190 -253 0
-106 -142 0
-106 -190 0
-142 -190 0
-276 -280 0
-187 -276 0
-214 -276 0
-88 -276 0
-85 -276 0
-187 -280 0
-214 -280 0
-88 -280 0
-85 -280 0
-187 -214 0
-88 -187 0
-85 -187 0
-88 -214 0
-85 -214 0
-85 -88 0
-29 -246 0
-43 -246 0
-242 -246 0
-96 -246 0
-246 -276 0
-29 -43 0
-29 -242 0
-29 -96 0
-29 -276 0
-43 -242 0
-43 -96 0
-43 -276 0
-96 -242 0
-242 -276 0
-96 -276 0
-166 -207 0
-27 -207 0
-207 -243 0
-108 -207 0
-207 -280 0
-27 -166 0
-166 -243 0
-108 -166 0
-166 -280 0
-27 -243 0
-27 -108 0
-27 -280 0
-108 -243 0
-243 -280 0
-108 -280 0
-192 -255 0
-41 -255 0
-26 -255 0
-253 -255 0
-187 -255 0
-41 -192 0
-26 -192 0
-192 -253 0
-187 -192 0
-26 -41 0
-41 -253 0
-41 -187 0
-26 -253 0
-26 -187 0
-187 -253 0
-137 -206 0
-25 -206 0
-106 -206 0
-206 -214 0
-25 -137 0
-106 -137 0
-137 -214 0
-25 -106 0
-25 -214 0
-106 -214 0
-30 -191 0
-30 -155 0
-30 -142 0
-30 -88 0
-155 -191 0
-142 -191 0
-88 -191 0
-142 -155 0
-88 -155 0
-88 -142 0
-190 -251 0
-85 -251 0
-85 -190 0
-57 -129 0
-57 -101 0
-24 -57 0
-57 -114 0
-45 -57 0
-57 -150 0
-101 -129 0
-24 -129 0
-114 -129 0
-45 -129 0
-129 -150 0
-24 -101 0
-101 -114 0
-45 -101 0
-101 -150 0
-24 -114 0
-24 -45 0
-24 -150 0
-45 -114 0
-114 -150 0
-45 -150 0
-23 -175 0
-23 -141 0
-23 -196 0
-23 -40 0
-23 -281 0
-23 -224 0
-141 -175 0
-175 -196 0
-40 -175 0
-175 -281 0
-175 -224 0
-141 -196 0
-40 -141 0
-141 -281 0
-141 -224 0
-40 -196 0
-196 -281 0
-196 -224 0
-40 -281 0
-40 -224 0
-224 -281 0
-22 -210 0
-82 -210 0
-72 -210 0
-21 -210 0
-168 -210 0
-64 -210 0
-22 -82 0
-22 -72 0
-21 -22 0
-22 -168 0
-22 -64 0
-72 -82 0
-21 -82 0
-82 -168 0
-64 -82 0
-21 -72 0
-72 -168 0
-64 -72 0
-21 -168 0
-21 -64 0
-64 -168 0
-95 -154 0
-47 -154 0
-20 -154 0
-19 -154 0
-105 -154 0
-47 -95 0
-20 -95 0
-19 -95 0
-95 -105 0
-20 -47 0
-19 -47 0
-47 -105 0
-19 -20 0
-20 -105 0
-19 -105 0
-18 -227 0
-18 -234 0
-18 -78 0
-18 -238 0
-18 -240 0
-227 -234 0
-78 -227 0
-227 -238 0
-227 -240 0
-78 -234 0
-234 -238 0
-234 -240 0
-78 -238 0
-78 -240 0
-238 -240 0
-17 -194 0
-156 -194 0
-194 -247 0
-194 -208 0
-194 -256 0
-17 -156 0
-17 -247 0
-17 -208 0
-17 -256 0
-156 -247 0
-156 -208 0
-156 -256 0
-208 -247 0
-247 -256 0
-208 -256 0
-16 -266 0
-15 -266 0
-28 -266 0
-165 -266 0
-193 -266 0
-15 -16 0
-16 -28 0
-16 -165 0
-16 -193 0
-15 -28 0
-15 -165 0
-15 -193 0
-28 -165 0
-28 -193 0
-165 -193 0
-23 -57 0
-57 -210 0
-23 -210 0
-129 -175 0
-22 -129 0
-129 -154 0
-18 -129 0
-129 -194 0
-129 -266 0
-22 -175 0
-154 -175 0
-18 -175 0
-175 -194 0
-175 -266 0
-22 -154 0
-18 -22 0
-22 -194 0
-22 -266 0
-18 -154 0
-154 -194 0
-154 -266 0
-18 -194 0
-18 -266 0
-194 -266 0
-101 -141 0
-82 -101 0
-95 -101 0
-101 -227 0
-17 -101 0
-16 -101 0
-82 -141 0
-95 -141 0
-141 -227 0
-17 -141 0
-16 -141 0
-82 -95 0
-82 -227 0
-17 -82 0
-16 -82 0
-95 -227 0
-17 -95 0
-16 -95 0
-17 -227 0
-16 -227 0
-16 -17 0
-24 -196 0
-24 -72 0
-24 -47 0
-24 -234 0
-24 -156 0
-15 -24 0
-72 -196 0
-47 -196 0
-196 -234 0
-156 -196 0
-15 -196 0
-47 -72 0
-72 -234 0
-72 -156 0
-15 -72 0
-47 -234 0
-47 -156 0
-15 -47 0
-156 -234 0
-15 -234 0
-15 -156 0
-40 -114 0
-21 -114 0
-20 -114 0
-78 -114 0
-114 -247 0
-28 -114 0
-21 -40 0
-20 -40 0
-40 -78 0
-40 -247 0
-28 -40 0
-20 -21 0
-21 -78 0
-21 -247 0
-21 -28 0
-20 -78 0
-20 -247 0
-20 -28 0
-78 -247 0
-28 -78 0
-28 -247 0
-45 -281 0
-45 -168 0
-19 -45 0
-45 -238 0
-45 -208 0
-45 -165 0
-168 -281 0
-19 -281 0
-238 -281 0
-208 -281 0
-165 -281 0
-19 -168 0
-168 -238 0
-168 -208 0
-165 -168 0
-19 -238 0
-19 -208 0
-19 -165 0
-208 -238 0
-165 -238 0
-165 -208 0
-150 -224 0
-64 -150 0
-105 -150 0
-150 -240 0
-150 -256 0
-150 -193 0
-64 -224 0
-105 -224 0
-224 -240 0
-224 -256 0
-193 -224 0
-64 -105 0
-64 -240 0
-64 -256 0
-64 -193 0
-105 -240 0
-105 -256 0
-105 -193 0
-240 -256 0
-193 -240 0
-193 -256 0
-14 -199 0
-199 -258 0
-14 -258 0
-138 -182 0
-138 -157 0
-48 -138 0
-112 -138 0
-46 -138 0
-157 -182 0
-48 -182 0
-112 -182 0
-46 -182 0
-48 -157 0
-112 -157 0
-46 -157 0
-48 -112 0
-46 -48 0
-46 -112 0
-13 -80 0
-80 -133 0
-12 -80 0
-80 -120 0
-80 -153 0
-13 -133 0
-12 -13 0
-13 -120 0
-13 -153 0
-12 -133 0
-120 -133 0
-133 -153 0
-12 -120 0
-12 -153 0
-120 -153 0
-91 -202 0
-91 -178 0
-91 -228 0
-84 -91 0
-70 -91 0
-178 -202 0
-202 -228 0
-84 -202 0
-70 -202 0
-178 -228 0
-84 -178 0
-70 -178 0
-84 -228 0
-70 -228 0
-70 -84 0
-61 -67 0
-11 -67 0
-10 -67 0
-67 -124 0
-11 -61 0
-10 -61 0
-61 -124 0
-10 -11 0
-11 -124 0
-10 -124 0
-140 -174 0
-174 -195 0
-174 -282 0
-174 -225 0
-140 -195 0
-140 -282 0
-140 -225 0
-195 -282 0
-195 -225 0
-225 -282 0
-138 -199 0
-80 -199 0
-91 -199 0
-67 -199 0
-174 -199 0
-80 -138 0
-91 -138 0
-67 -138 0
-138 -174 0
-80 -91 0
-67 -80 0
-80 -174 0
-67 -91 0
-91 -174 0
-67 -174 0
-14 -182 0
-13 -14 0
-14 -202 0
-14 -61 0
-14 -140 0
-13 -182 0
-182 -202 0
-61 -182 0
-140 -182 0
-13 -202 0
-13 -61 0
-13 -140 0
-61 -202 0
-140 -202 0
-61 -140 0
-157 -258 0
-133 -258 0
-178 -258 0
-11 -258 0
-195 -258 0
-133 -157 0
-157 -178 0
-11 -157 0
-157 -195 0
-133 -178 0
-11 -133 0
-133 -195 0
-11 -178 0
-178 -195 0
-11 -195 0
-12 -48 0
-48 -228 0
-10 -48 0
-48 -282 0
-12 -228 0
-10 -12 0
-12 -282 0
-10 -228 0
-228 -282 0
-10 -282 0
-112 -120 0
-84 -112 0
-112 -124 0
-112 -225 0
-84 -120 0
-120 -124 0
-120 -225 0
-84 -124 0
-84 -225 0
-124 -225 0
-46 -153 0
-46 -70 0
-70 -153 0
-9 -63 0
-53 -147 0
-51 -147 0
-128 -147 0
-51 -53 0
-53 -128 0
-51 -128 0
-218 -222 0
-8 -218 0
-218 -230 0
-8 -222 0
-222 -230 0
-8 -230 0
-7 -118 0
-55 -118 0
-6 -118 0
-118 -200 0
-118 -259 0
-7 -55 0
-6 -7 0
-7 -200 0
-7 -259 0
-6 -55 0
-55 -200 0
-55 -259 0
-6 -200 0
-6 -259 0
-200 -259 0
-261 -263 0
-261 -267 0
-5 -261 0
-4 -261 0
-261 -270 0
-263 -267 0
-5 -263 0
-4 -263 0
-263 -270 0
-5 -267 0
-4 -267 0
-267 -270 0
-4 -5 0
-5 -270 0
-4 -270 0
-3 -122 0
-122 -220 0
-122 -284 0
-2 -122 0
-1 -122 0
-3 -220 0
-3 -284 0
-2 -3 0
-1 -3 0
-220 -284 0
-2 -220 0
-1 -220 0
-2 -284 0
-1 -284 0
-1 -2 0
-147 -218 0
-118 -147 0
-147 -261 0
-122 -147 0
-118 -218 0
-218 -261 0
-122 -218 0
-118 -261 0
-118 -122 0
-122 -261 0
-53 -222 0
-7 -53 0
-53 -263 0
-3 -53 0
-7 -222 0
-222 -263 0
-3 -222 0
-7 -263 0
-3 -7 0
-3 -263 0
-8 -51 0
-51 -55 0
-51 -267 0
-51 -220 0
-8 -55 0
-8 -267 0
-8 -220 0
-55 -267 0
-55 -220 0
-220 -267 0
-128 -230 0
-6 -128 0
-5 -128 0
-128 -284 0
-6 -230 0
-5 -230 0
-230 -284 0
-5 -6 0
-6 -284 0
-5 -284 0
-9 -200 0
-4 -9 0
-2 -9 0
-4 -200 0
-2 -200 0
-2 -4 0
-63 -259 0
-63 -270 0
-1 -63 0
-259 -270 0
-1 -259 0
-1 -270 0
-146 -288 0
-42 -288 0
-167 -288 0
-286 -288 0
-89 -288 0
-42 -146 0
-146 -167 0
-146 -286 0
-89 -146 0
-42 -167 0
-42 -286 0
-42 -89 0
-167 -286 0
-89 -167 0
-89 -286 0
-113 -295 0
-113 -170 0
-113 -162 0
-170 -295 0
-162 -295 0
-162 -170 0
-159 -181 0
-181 -248 0
-181 -265 0
-132 -181 0
-181 -268 0
-181 -201 0
-177 -181 0
-181 -304 0
-159 -248 0
-159 -265 0
-132 -159 0
-159 -268 0
-159 -201 0
-159 -177 0
-159 -304 0
-248 -265 0
-132 -248 0
-248 -268 0
-201 -248 0
-177 -248 0
-248 -304 0
-132 -265 0
-265 -268 0
-201 -265 0
-177 -265 0
-265 -304 0
-132 -268 0
-132 -201 0
-132 -177 0
-132 -304 0
-201 -268 0
-177 -268 0
-268 -304 0
-177 -201 0
-201 -304 0
-177 -304 0
-149 -306 0
-149 -250 0
-37 -149 0
-149 -164 0
-149 -189 0
-149 -204 0
-149 -212 0
-86 -149 0
-250 -306 0
-37 -306 0
-164 -306 0
-189 -306 0
-204 -306 0
-212 -306 0
-86 -306 0
-37 -250 0
-164 -250 0
-189 -250 0
-204 -250 0
-212 -250 0
-86 -250 0
-37 -164 0
-37 -189 0
-37 -204 0
-37 -212 0
-37 -86 0
-164 -189 0
-164 -204 0
-164 -212 0
-86 -164 0
-189 -204 0
-189 -212 0
-86 -189 0
-204 -212 0
-86 -204 0
-86 -212 0
-207 -246 0
-246 -255 0
-29 -246 0
-166 -246 0
-192 -246 0
-207 -255 0
-29 -207 0
-166 -207 0
-192 -207 0
-29 -255 0
-166 -255 0
-192 -255 0
-29 -166 0
-29 -192 0
-166 -192 0
-23 -57 0
-57 -210 0
-23 -210 0
-14 -199 0
-199 -258 0
-14 -258 0
-125 -289 0
-125 -171 0
-110 -125 0
-125 -291 0
-79 -125 0
-171 -289 0
-110 -289 0
-289 -291 0
-79 -289 0
-110 -171 0
-171 -291 0
-79 -171 0
-110 -291 0
-79 -110 0
-79 -291 0
-77 -296 0
-111 -302 0
-271 -302 0
-119 -302 0
-229 -302 0
-83 -302 0
-111 -271 0
-111 -119 0
-111 -229 0
-83 -111 0
-119 -271 0
-229 -271 0
-83 -271 0
-119 -229 0
-83 -119 0
-83 -229 0
-273 -277 0
-185 -273 0
-231 -273 0
-99 -273 0
-76 -273 0
-185 -277 0
-231 -277 0
-99 -277 0
-76 -277 0
-185 -231 0
-99 -185 0
-76 -185 0
-99 -231 0
-76 -231 0
-76 -99 0
-97 -254 0
-97 -275 0
-97 -188 0
-36 -97 0
-74 -97 0
-254 -275 0
-188 -254 0
-36 -254 0
-74 -254 0
-188 -275 0
-36 -275 0
-74 -275 0
-36 -188 0
-74 -188 0
-36 -74 0
-30 -206 0
-137 -206 0
-191 -206 0
-30 -137 0
-30 -191 0
-137 -191 0
-101 -129 0
-24 -129 0
-129 -175 0
-129 -141 0
-129 -196 0
-22 -129 0
-82 -129 0
-72 -129 0
-24 -101 0
-101 -175 0
-101 -141 0
-101 -196 0
-22 -101 0
-82 -101 0
-72 -101 0
-24 -175 0
-24 -141 0
-24 -196 0
-22 -24 0
-24 -82 0
-24 -72 0
-141 -175 0
-175 -196 0
-22 -175 0
-82 -175 0
-72 -175 0
-141 -196 0
-22 -141 0
-82 -141 0
-72 -141 0
-22 -196 0
-82 -196 0
-72 -196 0
-22 -82 0
-22 -72 0
-72 -82 0
-136 -161 0
-144 -161 0
-161 -290 0
-161 -293 0
-71 -161 0
-136 -144 0
-136 -290 0
-136 -293 0
-71 -136 0
-144 -290 0
-144 -293 0
-71 -144 0
-290 -293 0
-71 -290 0
-71 -293 0
-103 -134 0
-134 -179 0
-93 -134 0
-69 -134 0
-66 -134 0
-103 -179 0
-93 -103 0
-69 -103 0
-66 -103 0
-93 -179 0
-69 -179 0
-66 -179 0
-69 -93 0
-66 -93 0
-66 -69 0
-279 -301 0
-102 -279 0
-172 -279 0
-102 -301 0
-172 -301 0
-102 -172 0
-107 -143 0
-107 -213 0
-87 -107 0
-68 -107 0
-107 -173 0
-143 -213 0
-87 -143 0
-68 -143 0
-143 -173 0
-87 -213 0
-68 -213 0
-173 -213 0
-68 -87 0
-87 -173 0
-68 -173 0
-45 -114 0
-114 -150 0
-40 -114 0
-114 -281 0
-114 -224 0
-21 -114 0
-114 -168 0
-64 -114 0
-45 -150 0
-40 -45 0
-45 -281 0
-45 -224 0
-21 -45 0
-45 -168 0
-45 -64 0
-40 -150 0
-150 -281 0
-150 -224 0
-21 -150 0
-150 -168 0
-64 -150 0
-40 -281 0
-40 -224 0
-21 -40 0
-40 -168 0
-40 -64 0
-224 -281 0
-21 -281 0
-168 -281 0
-64 -281 0
-21 -224 0
-168 -224 0
-64 -224 0
-21 -168 0
-21 -64 0
-64 -168 0
-9 -63 0
-59 -148 0
-59 -127 0
-59 -205 0
-127 -148 0
-148 -205 0
-127 -205 0
-62 -109 0
-62 -163 0
-62 -215 0
-109 -163 0
-109 -215 0
-163 -215 0
-58 -60 0
-56 -60 0
-44 -60 0
-60 -151 0
-60 -90 0
-38 -60 0
-60 -216 0
-60 -211 0
-56 -58 0
-44 -58 0
-58 -151 0
-58 -90 0
-38 -58 0
-58 -216 0
-58 -211 0
-44 -56 0
-56 -151 0
-56 -90 0
-38 -56 0
-56 -216 0
-56 -211 0
-44 -151 0
-44 -90 0
-38 -44 0
-44 -216 0
-44 -211 0
-90 -151 0
-38 -151 0
-151 -216 0
-151 -211 0
-38 -90 0
-90 -216 0
-90 -211 0
-38 -216 0
-38 -211 0
-211 -216 0
-54 -117 0
-117 -121 0
-117 -219 0
-54 -121 0
-54 -219 0
-121 -219 0
-35 -98 0
-98 -130 0
-49 -98 0
-98 -217 0
-98 -221 0
-35 -130 0
-35 -49 0
-35 -217 0
-35 -221 0
-49 -130 0
-130 -217 0
-130 -221 0
-49 -217 0
-49 -221 0
-217 -221 0
-27 -43 0
-41 -43 0
-27 -41 0
-138 -182 0
-138 -157 0
-80 -138 0
-13 -138 0
-133 -138 0
-91 -138 0
-138 -202 0
-138 -178 0
-157 -182 0
-80 -182 0
-13 -182 0
-133 -182 0
-91 -182 0
-182 -202 0
-178 -182 0
-80 -157 0
-13 -157 0
-133 -157 0
-91 -157 0
-157 -202 0
-157 -178 0
-13 -80 0
-80 -133 0
-80 -91 0
-80 -202 0
-80 -178 0
-13 -133 0
-13 -91 0
-13 -202 0
-13 -178 0
-91 -133 0
-133 -202 0
-133 -178 0
-91 -202 0
-91 -178 0
-178 -202 0
-53 -147 0
-147 -218 0
-147 -222 0
-53 -218 0
-53 -222 0
-218 -222 0
-123 -145 0
-145 -298 0
-145 -299 0
-145 -283 0
-145 -223 0
-123 -298 0
-123 -299 0
-123 -283 0
-123 -223 0
-298 -299 0
-283 -298 0
-223 -298 0
-283 -299 0
-223 -299 0
-223 -283 0
-50 -52 0
-52 -198 0
-52 -285 0
-52 -226 0
-52 -232 0
-50 -198 0
-50 -285 0
-50 -226 0
-50 -232 0
-198 -285 0
-198 -226 0
-198 -232 0
-226 -285 0
-232 -285 0
-226 -232 0
-34 -116 0
-33 -34 0
-34 -233 0
-33 -116 0
-116 -233 0
-33 -233 0
-95 -154 0
-47 -154 0
-18 -154 0
-154 -227 0
-154 -234 0
-47 -95 0
-18 -95 0
-95 -227 0
-95 -234 0
-18 -47 0
-47 -227 0
-47 -234 0
-18 -227 0
-18 -234 0
-227 -234 0
-48 -112 0
-12 -48 0
-48 -120 0
-48 -228 0
-48 -84 0
-12 -112 0
-112 -120 0
-112 -228 0
-84 -112 0
-12 -120 0
-12 -228 0
-12 -84 0
-120 -228 0
-84 -120 0
-84 -228 0
-51 -128 0
-8 -51 0
-51 -230 0
-8 -128 0
-128 -230 0
-8 -230 0
-252 -294 0
-235 -294 0
-75 -294 0
-235 -252 0
-75 -252 0
-75 -235 0
-209 -257 0
-209 -236 0
-209 -237 0
-236 -257 0
-237 -257 0
-236 -237 0
-115 -297 0
-197 -297 0
-39 -297 0
-73 -297 0
-239 -297 0
-115 -197 0
-39 -115 0
-73 -115 0
-115 -239 0
-39 -197 0
-73 -197 0
-197 -239 0
-39 -73 0
-39 -239 0
-73 -239 0
-19 -20 0
-20 -105 0
-20 -78 0
-20 -238 0
-20 -240 0
-19 -105 0
-19 -78 0
-19 -238 0
-19 -240 0
-78 -105 0
-105 -238 0
-105 -240 0
-78 -238 0
-78 -240 0
-238 -240 0
-46 -153 0
-46 -70 0
-70 -153 0
-65 -169 0
-169 -300 0
-65 -300 0
-139 -241 0
-241 -303 0
-81 -241 0
-241 -272 0
-94 -241 0
-139 -303 0
-81 -139 0
-139 -272 0
-94 -139 0
-81 -303 0
-272 -303 0
-94 -303 0
-81 -272 0
-81 -94 0
-94 -272 0
-32 -260 0
-32 -262 0
-32 -274 0
-32 -278 0
-32 -184 0
-260 -262 0
-260 -274 0
-260 -278 0
-184 -260 0
-262 -274 0
-262 -278 0
-184 -262 0
-274 -278 0
-184 -274 0
-184 -278 0
-242 -243 0
-26 -242 0
-96 -242 0
-108 -242 0
-242 -253 0
-242 -276 0
-242 -280 0
-187 -242 0
-26 -243 0
-96 -243 0
-108 -243 0
-243 -253 0
-243 -276 0
-243 -280 0
-187 -243 0
-26 -96 0
-26 -108 0
-26 -253 0
-26 -276 0
-26 -280 0
-26 -187 0
-96 -108 0
-96 -253 0
-96 -276 0
-96 -280 0
-96 -187 0
-108 -253 0
-108 -276 0
-108 -280 0
-108 -187 0
-253 -276 0
-253 -280 0
-187 -253 0
-276 -280 0
-187 -276 0
-187 -280 0
-61 -67 0
-11 -67 0
-67 -174 0
-67 -140 0
-67 -195 0
-11 -61 0
-61 -174 0
-61 -140 0
-61 -195 0
-11 -174 0
-11 -140 0
-11 -195 0
-140 -174 0
-174 -195 0
-140 -195 0
-7 -118 0
-118 -261 0
-118 -263 0
-118 -122 0
-3 -118 0
-7 -261 0
-7 -263 0
-7 -122 0
-3 -7 0
-261 -263 0
-122 -261 0
-3 -261 0
-122 -263 0
-3 -263 0
-3 -122 0
-244 -245 0
-160 -183 0
-152 -183 0
-183 -264 0
-135 -183 0
-104 -183 0
-183 -203 0
-180 -183 0
-92 -183 0
-152 -160 0
-160 -264 0
-135 -160 0
-104 -160 0
-160 -203 0
-160 -180 0
-92 -160 0
-152 -264 0
-135 -152 0
-104 -152 0
-152 -203 0
-152 -180 0
-92 -152 0
-135 -264 0
-104 -264 0
-203 -264 0
-180 -264 0
-92 -264 0
-104 -135 0
-135 -203 0
-135 -180 0
-92 -135 0
-104 -203 0
-104 -180 0
-92 -104 0
-180 -203 0
-92 -203 0
-92 -180 0
-25 -155 0
-25 -106 0
-25 -142 0
-25 -214 0
-25 -88 0
-106 -155 0
-142 -155 0
-155 -214 0
-88 -155 0
-106 -142 0
-106 -214 0
-88 -106 0
-142 -214 0
-88 -142 0
-88 -214 0
-17 -194 0
-156 -194 0
-194 -266 0
-16 -194 0
-15 -194 0
-17 -156 0
-17 -266 0
-16 -17 0
-15 -17 0
-156 -266 0
-16 -156 0
-15 -156 0
-16 -266 0
-15 -266 0
-15 -16 0
-10 -124 0
-10 -282 0
-10 -225 0
-124 -282 0
-124 -225 0
-225 -282 0
-6 -55 0
-55 -267 0
-5 -55 0
-55 -220 0
-55 -284 0
-6 -267 0
-5 -6 0
-6 -220 0
-6 -284 0
-5 -267 0
-220 -267 0
-267 -284 0
-5 -220 0
-5 -284 0
-220 -284 0
-287 -292 0
-158 -249 0
-131 -158 0
-158 -269 0
-158 -176 0
-158 -305 0
-131 -249 0
-249 -269 0
-176 -249 0
-249 -305 0
-131 -269 0
-131 -176 0
-131 -305 0
-176 -269 0
-269 -305 0
-176 -305 0
-126 -186 0
-100 -126 0
-31 -126 0
-100 -186 0
-31 -186 0
-31 -100 0
-190 -251 0
-85 -251 0
-85 -190 0
-208 -247 0
-247 -256 0
-28 -247 0
-165 -247 0
-193 -247 0
-208 -256 0
-28 -208 0
-165 -208 0
-193 -208 0
-28 -256 0
-165 -256 0
-193 -256 0
-28 -165 0
-28 -193 0
-165 -193 0
-200 -259 0
-4 -200 0
-200 -270 0
-2 -200 0
-1 -200 0
-4 -259 0
-259 -270 0
-2 -259 0
-1 -259 0
-4 -270 0
-2 -4 0
-1 -4 0
-2 -270 0
-1 -270 0
-1 -2 0
